nNurses = 173;
nHours = 38;
minHours = 6;
maxHours = 15;
maxConsec = 8;
maxPresence = 35;
demand = [16, 16, 20, 21, 23, 26, 25, 26, 24, 23, 22, 26, 29, 28, 30, 28, 33, 34, 29, 29, 32, 37, 37, 40, 40, 35, 38, 38, 34, 38, 38, 38, 38, 36, 37, 34, 36, 38];
